
Gurobi 9.5.1 (mac64[x86]) logging started Tue Jun  7 23:25:49 2022

Set parameter LogFile to value "/Users/keyvanmajd/Documents/GitHub/NNRepLayer_v2/demos/examples/tc7_walking_example/repair_inp_out_constraint/repair_net/logs/opt_log_6_7_2022_23_25_8.log"
Gurobi Optimizer version 9.5.1 build v9.5.1rc2 (mac64[x86])
Thread count: 4 physical cores, 8 logical processors, using up to 8 threads
Optimize a model with 573 rows, 203 columns and 1553 nonzeros
Model fingerprint: 0x83203a72
Model has 170 quadratic objective terms
Coefficient statistics:
  Matrix range     [7e-03, 3e+01]
  Objective range  [1e-03, 2e-01]
  QObjective range [1e-02, 2e+00]
  Bounds range     [1e+01, 1e+02]
  RHS range        [1e-03, 2e+01]
Presolve removed 367 rows and 16 columns
Presolve time: 0.01s
Presolved: 206 rows, 187 columns, 1174 nonzeros
Presolved model has 170 quadratic objective terms
Ordering time: 0.00s

Barrier statistics:
 Dense cols : 11
 AA' NZ     : 1.425e+03
 Factor NZ  : 2.038e+03
 Factor Ops : 2.896e+04 (less than 1 second per iteration)
 Threads    : 1

                  Objective                Residual
Iter       Primal          Dual         Primal    Dual     Compl     Time
   0   6.42279521e+07 -6.43433144e+07  2.39e+03 7.18e+02  9.37e+05     0s
   1   1.83634769e+07 -1.85793401e+07  1.24e+03 3.73e+02  4.94e+05     0s
   2   1.75473876e+05 -8.37022842e+05  1.24e+02 3.72e+01  6.70e+04     0s
   3   5.11265420e+01 -4.80426063e+05  1.87e+00 5.63e-01  2.11e+03     0s
   4   1.56922021e+01 -1.63831942e+05  2.57e-01 7.72e-02  4.97e+02     0s
   5   1.57642265e+01 -1.51357743e+04  3.21e-03 9.64e-04  3.68e+01     0s
   6   1.48759525e+01 -1.14719885e+02  2.16e-05 6.49e-06  3.13e-01     0s
   7   8.23960794e+00 -1.44468488e+01  3.14e-06 9.44e-07  5.48e-02     0s
   8   6.01843568e+00 -4.42879562e-01  7.64e-07 2.30e-07  1.56e-02     0s
   9   5.14316972e+00  1.71269530e+00  1.70e-07 5.12e-08  8.29e-03     0s
  10   4.89348641e+00  3.64909744e+00  4.43e-08 1.33e-08  3.01e-03     0s
  11   4.81719105e+00  4.47490717e+00  3.08e-09 9.26e-10  8.27e-04     0s
  12   4.79463627e+00  4.76037992e+00  2.49e-10 7.49e-11  8.27e-05     0s
  13   4.79217576e+00  4.79205542e+00  8.81e-13 4.08e-13  2.91e-07     0s
  14   4.79217000e+00  4.79216964e+00  3.10e-09 3.84e-11  8.93e-10     0s

Barrier solved model in 14 iterations and 0.01 seconds (0.00 work units)
Optimal objective 4.79217000e+00

